(set-info :smt-lib-version 2.6)
(set-logic QF_FXP)
(set-info :category "crafted")
(set-info :source |Alberto Griggio <griggio@fbk.eu>. These benchmarks were used for the evaluation in the following paper: L. Haller, A. Griggio, M. Brain, D. Kroening: Deciding floating-point logic with systematic abstraction. FMCAD 2012. Real-numbered literals have been automatically translated by MathSAT|)
(set-info :status unknown)
;; MathSAT API call trace ;; generated on 05/20/15 17:24:53 
(declare-fun |c::main::1::IN!0@1#0| () (_ SFXP 32 16))
(define-fun _t_3 () RoundingMode roundUp)
(define-fun _t_9 () (_ SFXP 32 16) |c::main::1::IN!0@1#0|)
(define-fun _t_11 () (_ SFXP 32 16) ((_ sfxp 16) #x00020000))
(define-fun _t_12 () Bool (sfxp.lt _t_9 _t_11))
(define-fun _t_14 () (_ SFXP 32 16) ((_ sfxp 16) #x00020000))
(define-fun _t_15 () Bool (sfxp.lt _t_14 _t_9))
(define-fun _t_16 () Bool (and _t_12 _t_15))
(define-fun _t_17 () (_ SFXP 32 16) (sfxp.mul saturation _t_3 _t_9 _t_9))
(define-fun _t_18 () (_ SFXP 32 16) (sfxp.div saturation _t_3 _t_17 _t_11))
(define-fun _t_19 () (_ SFXP 32 16) (sfxp.neg saturation _t_18))
(define-fun _t_21 () (_ SFXP 32 16) ((_ sfxp 16) #x00010000))
(define-fun _t_22 () (_ SFXP 32 16) (sfxp.add saturation _t_19 _t_21))
(define-fun _t_23 () (_ SFXP 32 16) (sfxp.mul saturation _t_3 _t_9 _t_17))
(define-fun _t_24 () (_ SFXP 32 16) (sfxp.mul saturation _t_3 _t_9 _t_23))
(define-fun _t_26 () (_ SFXP 32 16) ((_ sfxp 16) #x00180000))
(define-fun _t_27 () (_ SFXP 32 16) (sfxp.div saturation _t_3 _t_24 _t_26))
(define-fun _t_28 () (_ SFXP 32 16) (sfxp.add saturation _t_22 _t_27))
(define-fun _t_29 () (_ SFXP 32 16) (sfxp.mul saturation _t_3 _t_9 _t_24))
(define-fun _t_30 () (_ SFXP 32 16) (sfxp.mul saturation _t_3 _t_9 _t_29))
(define-fun _t_32 () (_ SFXP 32 16) ((_ sfxp 16) #x02d00000))
(define-fun _t_33 () (_ SFXP 32 16) (sfxp.div saturation _t_3 _t_30 _t_32))
(define-fun _t_34 () (_ SFXP 32 16) (sfxp.add saturation _t_28 _t_33))
(define-fun _t_36 () (_ SFXP 32 16) ((_ sfxp 16) #x00060000))
(define-fun _t_37 () (_ SFXP 32 16) (sfxp.div saturation _t_3 _t_23 _t_36))
(define-fun _t_38 () (_ SFXP 32 16) (sfxp.neg saturation _t_37))
(define-fun _t_39 () (_ SFXP 32 16) (sfxp.add saturation _t_9 _t_38))
(define-fun _t_41 () (_ SFXP 32 16) ((_ sfxp 16) #x00780000))
(define-fun _t_42 () (_ SFXP 32 16) (sfxp.div saturation _t_3 _t_29 _t_41))
(define-fun _t_43 () (_ SFXP 32 16) (sfxp.add saturation _t_39 _t_42))
(define-fun _t_44 () (_ SFXP 32 16) (sfxp.mul saturation _t_3 _t_9 _t_30))
(define-fun _t_46 () (_ SFXP 32 16) ((_ sfxp 16) #x13b00000))
(define-fun _t_47 () (_ SFXP 32 16) (sfxp.div saturation _t_3 _t_44 _t_46))
(define-fun _t_48 () (_ SFXP 32 16) (sfxp.add saturation _t_43 _t_47))
(define-fun _t_49 () (_ SFXP 32 16) (sfxp.div saturation _t_3 _t_48 _t_34))
(define-fun _t_50 () (_ SFXP 32 16) (sfxp.neg saturation _t_49))
(define-fun _t_51 () (_ SFXP 32 16) (sfxp.add saturation _t_9 _t_50))
(define-fun _t_52 () (_ SFXP 32 16) (sfxp.mul saturation _t_3 _t_51 _t_51))
(define-fun _t_53 () (_ SFXP 32 16) (sfxp.div saturation _t_3 _t_52 _t_11))
(define-fun _t_54 () (_ SFXP 32 16) (sfxp.neg saturation _t_53))
(define-fun _t_55 () (_ SFXP 32 16) (sfxp.add saturation _t_21 _t_54))
(define-fun _t_56 () (_ SFXP 32 16) (sfxp.mul saturation _t_3 _t_51 _t_52))
(define-fun _t_57 () (_ SFXP 32 16) (sfxp.mul saturation _t_3 _t_51 _t_56))
(define-fun _t_58 () (_ SFXP 32 16) (sfxp.div saturation _t_3 _t_57 _t_26))
(define-fun _t_59 () (_ SFXP 32 16) (sfxp.add saturation _t_55 _t_58))
(define-fun _t_60 () (_ SFXP 32 16) (sfxp.mul saturation _t_3 _t_51 _t_57))
(define-fun _t_61 () (_ SFXP 32 16) (sfxp.mul saturation _t_3 _t_51 _t_60))
(define-fun _t_62 () (_ SFXP 32 16) (sfxp.div saturation _t_3 _t_61 _t_32))
(define-fun _t_63 () (_ SFXP 32 16) (sfxp.add saturation _t_59 _t_62))
(define-fun _t_64 () (_ SFXP 32 16) (sfxp.div saturation _t_3 _t_56 _t_36))
(define-fun _t_65 () (_ SFXP 32 16) (sfxp.neg saturation _t_64))
(define-fun _t_66 () (_ SFXP 32 16) (sfxp.add saturation _t_51 _t_65))
(define-fun _t_67 () (_ SFXP 32 16) (sfxp.div saturation _t_3 _t_60 _t_41))
(define-fun _t_68 () (_ SFXP 32 16) (sfxp.add saturation _t_66 _t_67))
(define-fun _t_69 () (_ SFXP 32 16) (sfxp.mul saturation _t_3 _t_51 _t_61))
(define-fun _t_70 () (_ SFXP 32 16) (sfxp.div saturation _t_3 _t_69 _t_46))
(define-fun _t_71 () (_ SFXP 32 16) (sfxp.add saturation _t_68 _t_70))
(define-fun _t_72 () (_ SFXP 32 16) (sfxp.div saturation _t_3 _t_71 _t_63))
(define-fun _t_73 () (_ SFXP 32 16) (sfxp.neg saturation _t_72))
(define-fun _t_74 () (_ SFXP 32 16) (sfxp.add saturation _t_51 _t_73))
(define-fun _t_75 () (_ SFXP 32 16) _t_74)
(define-fun _t_77 () (_ SFXP 32 16) ((_ sfxp 16) #x00001999))
(define-fun _t_78 () Bool (sfxp.lt _t_75 _t_77))
(define-fun _t_79 () Bool (not _t_78))
(define-fun _t_80 () Bool (and _t_16 _t_79))
(assert _t_80)
(check-sat)
(exit)
